\ SCIP STATISTICS
\   Problem name     : AFIRO
\   Variables        : 32 (0 binary, 0 integer, 0 implicit integer, 32 continuous)
\   Constraints      : 27
Minimize
 Obj: -0.4 X02 -0.32 X14 -0.6 X23 -0.48 X36 +10 X39
Subject to
 R09: -1 X01 +1 X02 +1 X03 = +0
 R10: -1.06 X01 +1 X04 = +0
 X05: +1 X01 <= +80
 X21: -1 X02 +1.4 X14 <= +0
 R12: -1 X06 -1 X07 -1 X08 -1 X09 +1 X14 +1 X15 = +0
 R13: -1.06 X06 -1.06 X07 -0.96 X08 -0.86 X09 +1 X16 = +0
 X17: +1 X06 -1 X10 <= +80
 X18: +1 X07 -1 X11 <= +0
 X19: +1 X08 -1 X12 <= +0
 X20: +1 X09 -1 X13 <= +0
 R19: -1 X22 +1 X23 +1 X24 +1 X25 = +0
 R20: -0.43 X22 +1 X26 = +0
 X27: +1 X22 <= +500
 X44: -1 X23 +1.4 X36 <= +0
 R22: -0.43 X28 -0.43 X29 -0.39 X30 -0.37 X31 +1 X38 = +0
 R23: +1 X28 +1 X29 +1 X30 +1 X31 -1 X36 +1 X37 +1 X39 = +44
 X40: +1 X28 -1 X32 <= +500
 X41: +1 X29 -1 X33 <= +0
 X42: +1 X30 -1 X34 <= +0
 X43: +1 X31 -1 X35 <= +0
 X45: +2.364 X10 +2.386 X11 +2.408 X12 +2.429 X13 -1 X25 +2.191 X32 +2.219 X33 +2.249 X34 +2.279 X35 <= +0
 X46: -1 X03 +0.109 X22 <= +0
 X47: -1 X15 +0.109 X28 +0.108 X29 +0.108 X30 +0.107 X31 <= +0
 X48: +0.301 X01 -1 X24 <= +0
 X49: +0.301 X06 +0.313 X07 +0.313 X08 +0.326 X09 -1 X37 <= +0
 X50: +1 X04 +1 X26 <= +310
 X51: +1 X16 +1 X38 <= +300
Bounds
End
